nNurses = 56;
nHours = 38;
minHours = 10;
maxHours = 13;
maxConsec = 8;
maxPresence = 26;
demand = [19, 19, 16, 15, 13, 14, 16, 13, 8, 9, 5, 10, 14, 10, 11, 13, 16, 15, 18, 19, 14, 14, 9, 7, 6, 7, 6, 5, 6, 9, 9, 10, 8, 6, 10, 11, 7, 10];
